
Gurobi 9.5.1 (linux64, Python) logging started Tue Jun 21 17:43:06 2022

Set parameter Username
Set parameter LogFile to value "gurobi.log"
Academic license - for non-commercial use only - expires 2023-06-16
